SECTION Graph
Nodes 398
Edges 397

E 1 5 100
E 1 257 100
E 2 10 100
E 2 18 100
E 3 67 100
E 3 259 100
E 4 132 101
E 5 37 103
E 5 133 100
E 5 261 102
E 6 262 102
E 7 135 102
E 8 16 100
E 8 136 101
E 9 10 100
E 9 11 102
E 10 138 100
E 11 12 101
E 11 75 100
E 12 268 100
E 13 77 102
E 16 272 100
E 18 26 100
E 18 82 100
E 19 23 101
E 21 22 101
E 22 24 101
E 22 150 102
E 23 55 101
E 24 152 102
E 25 26 101
E 25 57 101
E 25 281 100
E 26 28 102
E 26 30 104
E 26 58 100
E 26 90 101
E 26 154 101
E 27 31 104
E 27 283 101
E 34 50 100
E 35 39 102
E 35 291 100
E 39 40 103
E 39 103 100
E 39 167 100
E 41 42 102
E 41 57 100
E 41 105 101
E 42 170 100
E 44 108 100
E 46 62 102
E 47 175 102
E 47 303 101
E 49 113 102
E 50 52 101
E 50 58 103
E 50 306 105
E 54 62 100
E 55 311 102
E 59 123 100
E 61 317 102
E 62 190 101
E 62 318 100
E 64 192 103
E 65 81 100
E 65 193 100
E 65 321 101
E 66 74 100
E 66 194 100
E 67 323 102
E 68 72 101
E 68 76 100
E 69 71 101
E 69 77 100
E 69 85 100
E 71 327 101
E 72 80 100
E 72 200 100
E 73 201 100
E 74 106 101
E 74 202 100
E 75 107 101
E 76 108 102
E 78 80 101
E 79 207 100
E 80 336 100
E 81 113 100
E 81 337 101
E 82 338 102
E 84 88 102
E 85 87 100
E 85 93 101
E 85 213 101
E 86 342 101
E 87 88 100
E 87 343 100
E 88 96 100
E 90 122 104
E 90 218 101
E 91 123 101
E 91 219 100
E 97 99 102
E 97 353 100
E 99 227 100
E 100 228 102
E 102 358 100
E 104 120 101
E 104 232 100
E 104 360 100
E 105 106 100
E 105 361 100
E 108 112 100
E 109 237 100
E 112 128 101
E 114 122 101
E 115 116 101
E 115 119 101
E 115 243 100
E 115 371 101
E 116 244 100
E 117 118 100
E 118 120 100
E 119 127 102
E 119 375 101
E 120 128 100
E 121 123 100
E 124 128 101
E 126 128 101
E 129 131 100
E 129 133 100
E 129 145 105
E 129 161 101
E 130 194 100
E 132 136 103
E 135 136 100
E 135 151 102
E 135 199 101
E 137 139 101
E 137 201 101
E 138 394 101
E 139 140 101
E 139 203 100
E 141 157 101
E 141 173 100
E 141 205 101
E 141 397 101
E 142 144 103
E 143 399 100
E 144 160 100
E 144 208 101
E 148 152 100
E 148 404 100
E 149 181 101
E 149 405 101
E 152 184 101
E 152 216 100
E 152 408 101
E 155 411 100
E 156 160 101
E 156 188 103
E 157 221 100
E 161 169 101
E 164 168 101
E 166 168 103
E 167 175 101
E 167 423 102
E 168 176 101
E 168 424 100
E 169 185 100
E 171 175 100
E 175 191 100
E 177 241 101
E 177 433 101
E 178 242 100
E 179 243 103
E 185 187 102
E 187 251 101
E 191 192 100
E 193 201 100
E 194 196 100
E 194 226 101
E 194 450 101
E 196 452 102
E 198 214 100
E 198 454 100
E 199 215 101
E 199 231 101
E 200 208 101
E 202 234 101
E 203 219 101
E 203 235 100
E 205 207 101
E 205 237 101
E 209 213 100
E 209 241 101
E 210 466 101
E 211 243 100
E 214 222 103
E 215 471 102
E 216 224 101
E 217 218 102
E 218 250 100
E 220 476 101
E 221 223 100
E 224 256 103
E 227 228 101
E 227 235 101
E 227 483 101
E 228 236 100
E 228 484 102
E 229 230 100
E 230 238 101
E 230 246 101
E 231 239 100
E 231 247 100
E 232 488 101
E 233 235 100
E 234 236 101
E 234 238 100
E 237 239 100
E 237 253 102
E 237 493 102
E 241 242 102
E 242 498 100
E 243 247 101
E 245 247 100
E 245 501 105
E 246 502 101
E 257 321 100
E 258 262 100
E 259 260 101
E 260 276 100
E 260 388 104
E 262 270 102
E 262 278 102
E 264 280 102
E 264 328 101
E 265 297 100
E 267 271 100
E 267 283 102
E 268 300 101
E 268 332 100
E 270 302 101
E 271 272 100
E 272 336 101
E 273 281 100
E 276 280 100
E 279 280 101
E 280 288 100
E 280 312 101
E 281 313 102
E 281 345 101
E 281 409 101
E 282 286 101
E 284 288 100
E 284 316 101
E 284 348 102
E 285 413 101
E 286 318 100
E 286 350 100
E 289 291 101
E 291 307 102
E 292 296 101
E 294 302 101
E 295 311 101
E 296 360 101
E 296 424 100
E 297 299 101
E 297 425 101
E 298 302 100
E 299 427 100
E 300 304 100
E 301 302 103
E 302 304 100
E 302 318 101
E 302 430 101
E 303 304 101
E 309 373 101
E 311 312 100
E 314 378 102
E 314 442 102
E 316 380 100
E 317 319 102
E 317 445 100
E 323 324 100
E 326 328 103
E 326 454 102
E 328 344 100
E 328 456 100
E 329 330 101
E 329 345 100
E 329 457 101
E 331 363 104
E 332 364 100
E 333 334 101
E 334 462 101
E 336 464 100
E 337 465 101
E 339 340 101
E 340 344 100
E 341 373 101
E 342 470 101
E 343 351 102
E 348 476 100
E 353 354 102
E 353 369 100
E 354 358 102
E 355 363 100
E 357 485 103
E 363 364 101
E 363 379 100
E 366 368 100
E 366 382 100
E 367 495 100
E 368 384 102
E 371 372 102
E 373 374 101
E 374 502 102
E 378 380 101
E 378 382 101
E 379 380 100
E 381 382 104
E 385 401 101
E 385 449 100
E 390 398 100
E 391 455 101
E 395 399 100
E 395 411 102
E 397 413 100
E 398 400 100
E 398 430 101
E 399 415 101
E 400 432 100
E 401 402 100
E 402 434 100
E 403 404 103
E 405 437 102
E 408 416 100
E 411 412 100
E 411 475 101
E 413 415 100
E 413 445 102
E 414 416 100
E 416 448 100
E 416 480 102
E 417 418 103
E 417 433 100
E 419 483 101
E 421 437 100
E 421 485 103
E 423 439 101
E 425 489 101
E 427 431 101
E 428 432 101
E 428 492 100
E 432 448 100
E 433 435 102
E 434 438 104
E 435 436 100
E 435 499 101
E 436 444 101
E 443 507 101
E 444 508 100
E 449 453 101
E 449 465 100
E 450 466 100
E 451 455 100
E 452 468 100
E 453 485 100
E 455 456 100
E 455 487 101
E 457 489 102
E 460 464 103
E 461 462 101
E 461 477 102
E 462 464 100
E 463 464 102
E 463 495 100
E 464 496 100
E 466 474 100
E 470 478 100
E 473 475 100
E 473 505 103
E 478 480 101
E 481 489 100
E 486 488 101
E 487 503 100
E 490 506 100
E 491 492 102
E 492 496 101
E 498 502 100
E 499 507 101
E 502 504 104
E 502 510 101
E 503 511 102
E 506 510 101
END
SECTION Terminals
T 1
T 4
T 6
T 7
T 10
T 11
T 13
T 16
T 18
T 19
T 21
T 24
T 25
T 28
T 30
T 31
T 34
T 35
T 37
T 40
T 41
T 44
T 46
T 47
T 49
T 52
T 54
T 55
T 58
T 59
T 61
T 64
T 66
T 67
T 69
T 72
T 73
T 76
T 78
T 79
T 81
T 84
T 86
T 87
T 90
T 91
T 93
T 96
T 97
T 100
T 102
T 103
T 106
T 107
T 109
T 112
T 114
T 115
T 117
T 120
T 121
T 124
T 126
T 127
T 130
T 131
T 133
T 136
T 137
T 140
T 142
T 143
T 145
T 148
T 150
T 151
T 154
T 155
T 157
T 160
T 161
T 164
T 166
T 167
T 170
T 171
T 173
T 176
T 178
T 179
T 181
T 184
T 185
T 188
T 190
T 191
T 193
T 196
T 198
T 199
T 202
T 203
T 205
T 208
T 210
T 211
T 213
T 216
T 217
T 220
T 222
T 223
T 226
T 227
T 229
T 232
T 233
T 236
T 238
T 239
T 241
T 244
T 246
T 247
T 250
T 251
T 253
T 256
T 258
T 259
T 261
T 264
T 265
T 268
T 270
T 271
T 273
T 276
T 278
T 279
T 282
T 283
T 285
T 288
T 289
T 292
T 294
T 295
T 298
T 299
T 301
T 304
T 306
T 307
T 309
T 312
T 313
T 316
T 318
T 319
T 321
T 324
T 326
T 327
T 330
T 331
T 333
T 336
T 338
T 339
T 341
T 344
T 345
T 348
T 350
T 351
T 354
T 355
T 357
T 360
T 361
T 364
T 366
T 367
T 369
T 372
T 374
T 375
T 378
T 379
T 381
T 384
T 385
T 388
T 390
T 391
T 394
T 395
T 397
T 400
T 402
T 403
T 405
T 408
T 409
T 412
T 414
T 415
T 418
T 419
T 421
T 424
T 425
T 428
T 430
T 431
T 433
T 436
T 438
T 439
T 442
T 443
T 445
T 448
T 450
T 451
T 453
T 456
T 457
T 460
T 462
T 463
T 465
T 468
T 470
T 471
T 474
T 475
T 477
T 480
T 481
T 484
T 486
T 487
T 490
T 491
T 493
T 496
T 498
T 499
T 501
T 504
T 505
T 508
T 510
T 511
END
SECTION Cost
40061
END
